N = 7;
H = 6;
T = 2;

avail = array3d(1..N, 1..H, 1..T, [4, 6, 3, 10, 4, 9, 6, 2, 8, 7, 1, 2, 1, 6, 1, 5, 10, 5, 5, 8, 4, 8, 0, 8, 7, 7, 9, 7, 8, 9, 1, 5, 8, 1, 5, 7, 9, 1, 4, 7, 8, 9, 1, 7, 5, 3, 2, 7, 8, 4, 2, 5, 10, 5, 8, 4, 1, 6, 9, 8, 1, 5, 9, 4, 4, 6, 4, 10, 2, 0, 9, 6, 9, 6, 8, 5, 9, 1, 6, 6, 10, 0, 6, 8]);

r = array2d(1..H, 1..T, [0, 1, 0, 3, 1, 1, 3, 2, 3, 1, 2, 4]);
